(declare-fun cmp195.not.i.i_38_101 () (_ BitVec 1))
(declare-fun narrow_38_103 () (_ BitVec 1))
(declare-fun cmp192.i.i_38_100 () (_ BitVec 1))
(declare-fun i140.i.i_38_98 () (_ BitVec 32))
(declare-fun i134.i.i_38_97 () (_ BitVec 32))
(declare-fun i142.i.i_38_99 () (_ BitVec 32))
(declare-fun i132.i.i_38_96 () (_ BitVec 32))
(declare-fun src_reg_38_29 () (_ BitVec 32))
(declare-fun src_reg_38_28 () (_ BitVec 32))
(declare-fun dst_reg_38_11 () (_ BitVec 32))
(declare-fun dst_reg_38_10 () (_ BitVec 32))
(declare-fun i30.i32_38_95 () (_ BitVec 32))
(declare-fun i29.i29_38_94 () (_ BitVec 32))
(declare-fun i28.i26_38_93 () (_ BitVec 32))
(declare-fun src_reg_38_27 () (_ BitVec 32))
(declare-fun i27.i23_38_92 () (_ BitVec 32))
(declare-fun src_reg_38_26 () (_ BitVec 32))
(declare-fun i26.i20_38_91 () (_ BitVec 64))
(declare-fun src_reg_38_25 () (_ BitVec 64))
(declare-fun i25.i17_38_90 () (_ BitVec 64))
(declare-fun src_reg_38_24 () (_ BitVec 64))
(declare-fun i24.i14_38_89 () (_ BitVec 64))
(declare-fun src_reg_38_23 () (_ BitVec 64))
(declare-fun i23.i11_38_88 () (_ BitVec 64))
(declare-fun src_reg_38_22 () (_ BitVec 64))
(declare-fun i22.i8_38_87 () (_ BitVec 64))
(declare-fun src_reg_38_21 () (_ BitVec 64))
(declare-fun i21.i5_38_86 () (_ BitVec 64))
(declare-fun src_reg_38_20 () (_ BitVec 64))
(declare-fun i.i2_38_85 () (_ BitVec 32))
(declare-fun i30.i_38_84 () (_ BitVec 32))
(declare-fun i29.i_38_83 () (_ BitVec 32))
(declare-fun i28.i_38_82 () (_ BitVec 32))
(declare-fun dst_reg_38_9 () (_ BitVec 32))
(declare-fun i27.i_38_81 () (_ BitVec 32))
(declare-fun dst_reg_38_8 () (_ BitVec 32))
(declare-fun i26.i_38_80 () (_ BitVec 64))
(declare-fun dst_reg_38_7 () (_ BitVec 64))
(declare-fun i25.i_38_79 () (_ BitVec 64))
(declare-fun dst_reg_38_6 () (_ BitVec 64))
(declare-fun i24.i_38_78 () (_ BitVec 64))
(declare-fun dst_reg_38_5 () (_ BitVec 64))
(declare-fun i23.i_38_77 () (_ BitVec 64))
(declare-fun dst_reg_38_4 () (_ BitVec 64))
(declare-fun i22.i_38_76 () (_ BitVec 64))
(declare-fun dst_reg_38_3 () (_ BitVec 64))
(declare-fun i21.i_38_75 () (_ BitVec 64))
(declare-fun dst_reg_38_2 () (_ BitVec 64))
(declare-fun i.i_38_74 () (_ BitVec 32))
(declare-fun other_branch_src_reg_38_71 () (_ BitVec 8))
(declare-fun other_branch_src_reg_38_70 () (_ BitVec 32))
(declare-fun other_branch_src_reg_38_69 () (_ BitVec 32))
(declare-fun other_branch_src_reg_38_68 () (_ BitVec 32))
(declare-fun other_branch_src_reg_38_67 () (_ BitVec 32))
(declare-fun other_branch_src_reg_38_66 () (_ BitVec 32))
(declare-fun other_branch_src_reg_38_65 () (_ BitVec 32))
(declare-fun other_branch_src_reg_38_64 () (_ BitVec 32))
(declare-fun other_branch_src_reg_38_63 () (_ BitVec 32))
(declare-fun other_branch_src_reg_38_62 () (_ BitVec 32))
(declare-fun other_branch_src_reg_38_61 () (_ BitVec 64))
(declare-fun other_branch_src_reg_38_60 () (_ BitVec 64))
(declare-fun other_branch_src_reg_38_59 () (_ BitVec 64))
(declare-fun other_branch_src_reg_38_58 () (_ BitVec 64))
(declare-fun other_branch_src_reg_38_57 () (_ BitVec 64))
(declare-fun other_branch_src_reg_38_56 () (_ BitVec 64))
(declare-fun other_branch_src_reg_38_55 () (_ BitVec 32))
(declare-fun other_branch_src_reg_38_54 () (_ BitVec 32))
(declare-fun other_branch_dst_reg_38_53 () (_ BitVec 8))
(declare-fun other_branch_dst_reg_38_52 () (_ BitVec 32))
(declare-fun other_branch_dst_reg_38_51 () (_ BitVec 32))
(declare-fun other_branch_dst_reg_38_50 () (_ BitVec 32))
(declare-fun other_branch_dst_reg_38_49 () (_ BitVec 32))
(declare-fun other_branch_dst_reg_38_48 () (_ BitVec 32))
(declare-fun other_branch_dst_reg_38_47 () (_ BitVec 32))
(declare-fun other_branch_dst_reg_38_46 () (_ BitVec 32))
(declare-fun other_branch_dst_reg_38_45 () (_ BitVec 32))
(declare-fun other_branch_dst_reg_38_44 () (_ BitVec 32))
(declare-fun other_branch_dst_reg_38_43 () (_ BitVec 64))
(declare-fun other_branch_dst_reg_38_42 () (_ BitVec 64))
(declare-fun other_branch_dst_reg_38_41 () (_ BitVec 64))
(declare-fun other_branch_dst_reg_38_40 () (_ BitVec 64))
(declare-fun other_branch_dst_reg_38_39 () (_ BitVec 64))
(declare-fun other_branch_dst_reg_38_38 () (_ BitVec 64))
(declare-fun other_branch_dst_reg_38_37 () (_ BitVec 32))
(declare-fun other_branch_dst_reg_38_36 () (_ BitVec 32))
(declare-fun src_reg_38_35 () (_ BitVec 8))
(declare-fun src_reg_38_34 () (_ BitVec 32))
(declare-fun src_reg_38_33 () (_ BitVec 32))
(declare-fun src_reg_38_32 () (_ BitVec 32))
(declare-fun src_reg_38_31 () (_ BitVec 32))
(declare-fun src_reg_38_30 () (_ BitVec 32))
(declare-fun src_reg_38_19 () (_ BitVec 32))
(declare-fun src_reg_38_18 () (_ BitVec 32))
(declare-fun dst_reg_38_17 () (_ BitVec 8))
(declare-fun dst_reg_38_16 () (_ BitVec 32))
(declare-fun dst_reg_38_15 () (_ BitVec 32))
(declare-fun dst_reg_38_14 () (_ BitVec 32))
(declare-fun dst_reg_38_13 () (_ BitVec 32))
(declare-fun dst_reg_38_12 () (_ BitVec 32))
(declare-fun dst_reg_38_1 () (_ BitVec 32))
(declare-fun dst_reg_38_0 () (_ BitVec 32))
(declare-fun cmp.not.i_38_106 () (_ BitVec 1))
(declare-fun i.i35_38_104 () (_ BitVec 32))
(declare-fun cmp2.not.i_38_109 () (_ BitVec 1))
(declare-fun i1.i_38_107 () (_ BitVec 32))
(declare-fun i357.i509.i_38_124 () (_ BitVec 32))
(declare-fun cond324.i511.i_38_126 () (_ BitVec 32))
(declare-fun add.i507.i_38_123 () (_ BitVec 32))
(declare-fun cmp319.i510.i_38_125 () (_ BitVec 1))
(declare-fun i356.i506.i_38_121 () (_ BitVec 32))
(declare-fun sub.i502.i_38_118 () (_ BitVec 32))
(declare-fun cond314.i504.i_38_120 () (_ BitVec 32))
(declare-fun i354.i499.i_38_115 () (_ BitVec 32))
(declare-fun cmp309.i503.i_38_119 () (_ BitVec 1))
(declare-fun i355.i501.i_38_116 () (_ BitVec 32))
(declare-fun i349.i.i_38_112 () (_ BitVec 32))
(declare-fun cond279.i.i_38_114 () (_ BitVec 32))
(declare-fun cmp274.i.i_38_113 () (_ BitVec 1))
(declare-fun cond269.i.i_38_111 () (_ BitVec 32))
(declare-fun cmp264.i.i_38_110 () (_ BitVec 1))
(declare-fun other_branch_src_reg_38_270 () (_ BitVec 8))
(declare-fun other_branch_src_reg_38_198 () (_ BitVec 8))
(declare-fun other_branch_src_reg_38_269 () (_ BitVec 32))
(declare-fun other_branch_src_reg_38_197 () (_ BitVec 32))
(declare-fun other_branch_src_reg_38_268 () (_ BitVec 32))
(declare-fun other_branch_src_reg_38_196 () (_ BitVec 32))
(declare-fun other_branch_src_reg_38_267 () (_ BitVec 32))
(declare-fun other_branch_src_reg_38_195 () (_ BitVec 32))
(declare-fun other_branch_src_reg_38_266 () (_ BitVec 32))
(declare-fun other_branch_src_reg_38_194 () (_ BitVec 32))
(declare-fun other_branch_src_reg_38_265 () (_ BitVec 32))
(declare-fun other_branch_src_reg_38_193 () (_ BitVec 32))
(declare-fun other_branch_src_reg_38_264 () (_ BitVec 32))
(declare-fun other_branch_src_reg_38_192 () (_ BitVec 32))
(declare-fun other_branch_src_reg_38_263 () (_ BitVec 32))
(declare-fun other_branch_src_reg_38_191 () (_ BitVec 32))
(declare-fun other_branch_src_reg_38_262 () (_ BitVec 32))
(declare-fun other_branch_src_reg_38_190 () (_ BitVec 32))
(declare-fun other_branch_src_reg_38_261 () (_ BitVec 32))
(declare-fun other_branch_src_reg_38_189 () (_ BitVec 32))
(declare-fun other_branch_src_reg_38_260 () (_ BitVec 64))
(declare-fun other_branch_src_reg_38_188 () (_ BitVec 64))
(declare-fun other_branch_src_reg_38_259 () (_ BitVec 64))
(declare-fun other_branch_src_reg_38_187 () (_ BitVec 64))
(declare-fun other_branch_src_reg_38_258 () (_ BitVec 64))
(declare-fun other_branch_src_reg_38_186 () (_ BitVec 64))
(declare-fun other_branch_src_reg_38_257 () (_ BitVec 64))
(declare-fun other_branch_src_reg_38_185 () (_ BitVec 64))
(declare-fun other_branch_src_reg_38_256 () (_ BitVec 64))
(declare-fun other_branch_src_reg_38_184 () (_ BitVec 64))
(declare-fun other_branch_src_reg_38_255 () (_ BitVec 64))
(declare-fun other_branch_src_reg_38_183 () (_ BitVec 64))
(declare-fun other_branch_src_reg_38_254 () (_ BitVec 32))
(declare-fun other_branch_src_reg_38_182 () (_ BitVec 32))
(declare-fun other_branch_src_reg_38_253 () (_ BitVec 32))
(declare-fun other_branch_src_reg_38_181 () (_ BitVec 32))
(declare-fun other_branch_dst_reg_38_252 () (_ BitVec 8))
(declare-fun other_branch_dst_reg_38_180 () (_ BitVec 8))
(declare-fun other_branch_dst_reg_38_251 () (_ BitVec 32))
(declare-fun other_branch_dst_reg_38_179 () (_ BitVec 32))
(declare-fun other_branch_dst_reg_38_250 () (_ BitVec 32))
(declare-fun other_branch_dst_reg_38_178 () (_ BitVec 32))
(declare-fun other_branch_dst_reg_38_249 () (_ BitVec 32))
(declare-fun other_branch_dst_reg_38_177 () (_ BitVec 32))
(declare-fun other_branch_dst_reg_38_248 () (_ BitVec 32))
(declare-fun other_branch_dst_reg_38_176 () (_ BitVec 32))
(declare-fun other_branch_dst_reg_38_247 () (_ BitVec 32))
(declare-fun other_branch_dst_reg_38_175 () (_ BitVec 32))
(declare-fun other_branch_dst_reg_38_246 () (_ BitVec 32))
(declare-fun other_branch_dst_reg_38_174 () (_ BitVec 32))
(declare-fun other_branch_dst_reg_38_245 () (_ BitVec 32))
(declare-fun other_branch_dst_reg_38_173 () (_ BitVec 32))
(declare-fun other_branch_dst_reg_38_244 () (_ BitVec 32))
(declare-fun other_branch_dst_reg_38_172 () (_ BitVec 32))
(declare-fun other_branch_dst_reg_38_243 () (_ BitVec 32))
(declare-fun other_branch_dst_reg_38_171 () (_ BitVec 32))
(declare-fun other_branch_dst_reg_38_242 () (_ BitVec 64))
(declare-fun other_branch_dst_reg_38_170 () (_ BitVec 64))
(declare-fun other_branch_dst_reg_38_241 () (_ BitVec 64))
(declare-fun other_branch_dst_reg_38_169 () (_ BitVec 64))
(declare-fun other_branch_dst_reg_38_240 () (_ BitVec 64))
(declare-fun other_branch_dst_reg_38_168 () (_ BitVec 64))
(declare-fun other_branch_dst_reg_38_239 () (_ BitVec 64))
(declare-fun other_branch_dst_reg_38_167 () (_ BitVec 64))
(declare-fun other_branch_dst_reg_38_238 () (_ BitVec 64))
(declare-fun other_branch_dst_reg_38_166 () (_ BitVec 64))
(declare-fun other_branch_dst_reg_38_237 () (_ BitVec 64))
(declare-fun other_branch_dst_reg_38_165 () (_ BitVec 64))
(declare-fun other_branch_dst_reg_38_236 () (_ BitVec 32))
(declare-fun other_branch_dst_reg_38_164 () (_ BitVec 32))
(declare-fun other_branch_dst_reg_38_235 () (_ BitVec 32))
(declare-fun other_branch_dst_reg_38_163 () (_ BitVec 32))
(declare-fun src_reg_38_234 () (_ BitVec 8))
(declare-fun src_reg_38_162 () (_ BitVec 8))
(declare-fun src_reg_38_233 () (_ BitVec 32))
(declare-fun src_reg_38_161 () (_ BitVec 32))
(declare-fun src_reg_38_232 () (_ BitVec 32))
(declare-fun src_reg_38_160 () (_ BitVec 32))
(declare-fun src_reg_38_231 () (_ BitVec 32))
(declare-fun src_reg_38_159 () (_ BitVec 32))
(declare-fun src_reg_38_230 () (_ BitVec 32))
(declare-fun src_reg_38_158 () (_ BitVec 32))
(declare-fun src_reg_38_229 () (_ BitVec 32))
(declare-fun src_reg_38_157 () (_ BitVec 32))
(declare-fun src_reg_38_228 () (_ BitVec 32))
(declare-fun src_reg_38_156 () (_ BitVec 32))
(declare-fun src_reg_38_227 () (_ BitVec 32))
(declare-fun src_reg_38_155 () (_ BitVec 32))
(declare-fun src_reg_38_226 () (_ BitVec 32))
(declare-fun src_reg_38_154 () (_ BitVec 32))
(declare-fun src_reg_38_225 () (_ BitVec 32))
(declare-fun src_reg_38_153 () (_ BitVec 32))
(declare-fun src_reg_38_224 () (_ BitVec 64))
(declare-fun src_reg_38_152 () (_ BitVec 64))
(declare-fun src_reg_38_223 () (_ BitVec 64))
(declare-fun src_reg_38_151 () (_ BitVec 64))
(declare-fun src_reg_38_222 () (_ BitVec 64))
(declare-fun src_reg_38_150 () (_ BitVec 64))
(declare-fun src_reg_38_221 () (_ BitVec 64))
(declare-fun src_reg_38_149 () (_ BitVec 64))
(declare-fun src_reg_38_220 () (_ BitVec 64))
(declare-fun src_reg_38_148 () (_ BitVec 64))
(declare-fun src_reg_38_219 () (_ BitVec 64))
(declare-fun src_reg_38_147 () (_ BitVec 64))
(declare-fun src_reg_38_218 () (_ BitVec 32))
(declare-fun src_reg_38_146 () (_ BitVec 32))
(declare-fun src_reg_38_217 () (_ BitVec 32))
(declare-fun src_reg_38_145 () (_ BitVec 32))
(declare-fun dst_reg_38_216 () (_ BitVec 8))
(declare-fun dst_reg_38_144 () (_ BitVec 8))
(declare-fun dst_reg_38_215 () (_ BitVec 32))
(declare-fun dst_reg_38_143 () (_ BitVec 32))
(declare-fun dst_reg_38_214 () (_ BitVec 32))
(declare-fun dst_reg_38_142 () (_ BitVec 32))
(declare-fun dst_reg_38_213 () (_ BitVec 32))
(declare-fun dst_reg_38_141 () (_ BitVec 32))
(declare-fun dst_reg_38_212 () (_ BitVec 32))
(declare-fun dst_reg_38_140 () (_ BitVec 32))
(declare-fun dst_reg_38_211 () (_ BitVec 32))
(declare-fun dst_reg_38_139 () (_ BitVec 32))
(declare-fun dst_reg_38_210 () (_ BitVec 32))
(declare-fun dst_reg_38_138 () (_ BitVec 32))
(declare-fun dst_reg_38_209 () (_ BitVec 32))
(declare-fun dst_reg_38_137 () (_ BitVec 32))
(declare-fun dst_reg_38_208 () (_ BitVec 32))
(declare-fun dst_reg_38_136 () (_ BitVec 32))
(declare-fun dst_reg_38_207 () (_ BitVec 32))
(declare-fun dst_reg_38_135 () (_ BitVec 32))
(declare-fun dst_reg_38_206 () (_ BitVec 64))
(declare-fun dst_reg_38_134 () (_ BitVec 64))
(declare-fun dst_reg_38_205 () (_ BitVec 64))
(declare-fun dst_reg_38_133 () (_ BitVec 64))
(declare-fun dst_reg_38_204 () (_ BitVec 64))
(declare-fun dst_reg_38_132 () (_ BitVec 64))
(declare-fun dst_reg_38_203 () (_ BitVec 64))
(declare-fun dst_reg_38_131 () (_ BitVec 64))
(declare-fun dst_reg_38_202 () (_ BitVec 64))
(declare-fun dst_reg_38_130 () (_ BitVec 64))
(declare-fun dst_reg_38_201 () (_ BitVec 64))
(declare-fun dst_reg_38_129 () (_ BitVec 64))
(declare-fun dst_reg_38_200 () (_ BitVec 32))
(declare-fun dst_reg_38_128 () (_ BitVec 32))
(declare-fun dst_reg_38_199 () (_ BitVec 32))
(declare-fun dst_reg_38_127 () (_ BitVec 32))
(assert (let ((a!1 (and (= cmp2.not.i_38_109 #b1)
                (and (= cmp.not.i_38_106 #b1) (= narrow_38_103 #b0))))
      (a!2 (and (= cmp2.not.i_38_109 #b0)
                (and (= cmp.not.i_38_106 #b1) (= narrow_38_103 #b0))))
      (a!3 (and (= i.i2_38_85 other_branch_src_reg_38_181)
                (= other_branch_src_reg_38_55 other_branch_src_reg_38_182)
                (= i21.i5_38_86 other_branch_src_reg_38_183)
                (= i22.i8_38_87 other_branch_src_reg_38_184)
                (= i23.i11_38_88 other_branch_src_reg_38_185)
                (= i24.i14_38_89 other_branch_src_reg_38_186)
                (= i25.i17_38_90 other_branch_src_reg_38_187)
                (= i26.i20_38_91 other_branch_src_reg_38_188)
                (= i27.i23_38_92 other_branch_src_reg_38_189)
                (= i28.i26_38_93 other_branch_src_reg_38_190)
                (= i29.i29_38_94 other_branch_src_reg_38_191)
                (= i30.i32_38_95 other_branch_src_reg_38_192)
                (= other_branch_src_reg_38_66 other_branch_src_reg_38_193)
                (= other_branch_src_reg_38_67 other_branch_src_reg_38_194)
                (= other_branch_src_reg_38_68 other_branch_src_reg_38_195)
                (= other_branch_src_reg_38_69 other_branch_src_reg_38_196)
                (= other_branch_src_reg_38_70 other_branch_src_reg_38_197)
                (= other_branch_src_reg_38_71 other_branch_src_reg_38_198)
                (= i.i_38_74 other_branch_dst_reg_38_163)
                (= other_branch_dst_reg_38_37 other_branch_dst_reg_38_164)
                (= i21.i_38_75 other_branch_dst_reg_38_165)
                (= i22.i_38_76 other_branch_dst_reg_38_166)
                (= i23.i_38_77 other_branch_dst_reg_38_167)
                (= i24.i_38_78 other_branch_dst_reg_38_168)
                (= i25.i_38_79 other_branch_dst_reg_38_169)
                (= i26.i_38_80 other_branch_dst_reg_38_170)
                (= i27.i_38_81 other_branch_dst_reg_38_171)
                (= i28.i_38_82 other_branch_dst_reg_38_172)
                (= i29.i_38_83 other_branch_dst_reg_38_173)
                (= i30.i_38_84 other_branch_dst_reg_38_174)
                (= other_branch_dst_reg_38_48 other_branch_dst_reg_38_175)
                (= other_branch_dst_reg_38_49 other_branch_dst_reg_38_176)
                (= other_branch_dst_reg_38_50 other_branch_dst_reg_38_177)
                (= other_branch_dst_reg_38_51 other_branch_dst_reg_38_178)
                (= other_branch_dst_reg_38_52 other_branch_dst_reg_38_179)
                (= other_branch_dst_reg_38_53 other_branch_dst_reg_38_180)
                (= #x00000001 src_reg_38_145)
                (= src_reg_38_19 src_reg_38_146)
                (= src_reg_38_20 src_reg_38_147)
                (= src_reg_38_21 src_reg_38_148)
                (= src_reg_38_22 src_reg_38_149)
                (= src_reg_38_23 src_reg_38_150)
                (= src_reg_38_24 src_reg_38_151)
                (= src_reg_38_25 src_reg_38_152)
                (= src_reg_38_26 src_reg_38_153)
                (= src_reg_38_27 src_reg_38_154)
                (= src_reg_38_28 src_reg_38_155)
                (= src_reg_38_29 src_reg_38_156)
                (= src_reg_38_30 src_reg_38_157)
                (= src_reg_38_31 src_reg_38_158)
                (= src_reg_38_32 src_reg_38_159)
                (= src_reg_38_33 src_reg_38_160)
                (= src_reg_38_34 src_reg_38_161)
                (= src_reg_38_35 src_reg_38_162)
                (= #x00000001 dst_reg_38_127)
                (= dst_reg_38_1 dst_reg_38_128)
                (= dst_reg_38_2 dst_reg_38_129)
                (= dst_reg_38_3 dst_reg_38_130)
                (= dst_reg_38_4 dst_reg_38_131)
                (= dst_reg_38_5 dst_reg_38_132)
                (= dst_reg_38_6 dst_reg_38_133)
                (= dst_reg_38_7 dst_reg_38_134)
                (= dst_reg_38_8 dst_reg_38_135)
                (= dst_reg_38_9 dst_reg_38_136)
                (= dst_reg_38_10 dst_reg_38_137)
                (= dst_reg_38_11 dst_reg_38_138)
                (= dst_reg_38_12 dst_reg_38_139)
                (= dst_reg_38_13 dst_reg_38_140)
                (= dst_reg_38_14 dst_reg_38_141)
                (= dst_reg_38_15 dst_reg_38_142)
                (= dst_reg_38_16 dst_reg_38_143)
                (= dst_reg_38_17 dst_reg_38_144)))
      (a!7 (=> (and (= cmp.not.i_38_106 #b1) (= narrow_38_103 #b0))
               (and (= #x00000001 i1.i_38_107)
                    (ite (= i1.i_38_107 #x00000001)
                         (= cmp2.not.i_38_109 #b1)
                         (= cmp2.not.i_38_109 #b0)))))
      (a!8 (=> (= narrow_38_103 #b0)
               (and (= #x00000001 i.i35_38_104)
                    (ite (= i.i35_38_104 #x00000001)
                         (= cmp.not.i_38_106 #b1)
                         (= cmp.not.i_38_106 #b0))))))
(let ((a!4 (and (=> (= narrow_38_103 #b1) a!3)
                (=> (and (= cmp.not.i_38_106 #b0) (= narrow_38_103 #b0)) a!3)
                (=> a!2 a!3)
                (=> a!1
                    (and (= i.i2_38_85 other_branch_src_reg_38_181)
                         (= other_branch_src_reg_38_55
                            other_branch_src_reg_38_182)
                         (= i21.i5_38_86 other_branch_src_reg_38_183)
                         (= i22.i8_38_87 other_branch_src_reg_38_184)
                         (= i23.i11_38_88 other_branch_src_reg_38_185)
                         (= i24.i14_38_89 other_branch_src_reg_38_186)
                         (= i25.i17_38_90 other_branch_src_reg_38_187)
                         (= i26.i20_38_91 other_branch_src_reg_38_188)
                         (= i27.i23_38_92 other_branch_src_reg_38_189)
                         (= i28.i26_38_93 other_branch_src_reg_38_190)
                         (= i29.i29_38_94 other_branch_src_reg_38_191)
                         (= cond314.i504.i_38_120 other_branch_src_reg_38_192)
                         (= other_branch_src_reg_38_66
                            other_branch_src_reg_38_193)
                         (= other_branch_src_reg_38_67
                            other_branch_src_reg_38_194)
                         (= other_branch_src_reg_38_68
                            other_branch_src_reg_38_195)
                         (= other_branch_src_reg_38_69
                            other_branch_src_reg_38_196)
                         (= other_branch_src_reg_38_70
                            other_branch_src_reg_38_197)
                         (= other_branch_src_reg_38_71
                            other_branch_src_reg_38_198)
                         (= i.i_38_74 other_branch_dst_reg_38_163)
                         (= other_branch_dst_reg_38_37
                            other_branch_dst_reg_38_164)
                         (= i21.i_38_75 other_branch_dst_reg_38_165)
                         (= i22.i_38_76 other_branch_dst_reg_38_166)
                         (= i23.i_38_77 other_branch_dst_reg_38_167)
                         (= i24.i_38_78 other_branch_dst_reg_38_168)
                         (= i25.i_38_79 other_branch_dst_reg_38_169)
                         (= i26.i_38_80 other_branch_dst_reg_38_170)
                         (= i27.i_38_81 other_branch_dst_reg_38_171)
                         (= i28.i_38_82 other_branch_dst_reg_38_172)
                         (= cond324.i511.i_38_126 other_branch_dst_reg_38_173)
                         (= i30.i_38_84 other_branch_dst_reg_38_174)
                         (= other_branch_dst_reg_38_48
                            other_branch_dst_reg_38_175)
                         (= other_branch_dst_reg_38_49
                            other_branch_dst_reg_38_176)
                         (= other_branch_dst_reg_38_50
                            other_branch_dst_reg_38_177)
                         (= other_branch_dst_reg_38_51
                            other_branch_dst_reg_38_178)
                         (= other_branch_dst_reg_38_52
                            other_branch_dst_reg_38_179)
                         (= other_branch_dst_reg_38_53
                            other_branch_dst_reg_38_180)
                         (= #x00000001 src_reg_38_145)
                         (= src_reg_38_19 src_reg_38_146)
                         (= src_reg_38_20 src_reg_38_147)
                         (= src_reg_38_21 src_reg_38_148)
                         (= src_reg_38_22 src_reg_38_149)
                         (= src_reg_38_23 src_reg_38_150)
                         (= src_reg_38_24 src_reg_38_151)
                         (= src_reg_38_25 src_reg_38_152)
                         (= src_reg_38_26 src_reg_38_153)
                         (= src_reg_38_27 src_reg_38_154)
                         (= cond279.i.i_38_114 src_reg_38_155)
                         (= src_reg_38_29 src_reg_38_156)
                         (= src_reg_38_30 src_reg_38_157)
                         (= src_reg_38_31 src_reg_38_158)
                         (= src_reg_38_32 src_reg_38_159)
                         (= src_reg_38_33 src_reg_38_160)
                         (= src_reg_38_34 src_reg_38_161)
                         (= src_reg_38_35 src_reg_38_162)
                         (= #x00000001 dst_reg_38_127)
                         (= dst_reg_38_1 dst_reg_38_128)
                         (= dst_reg_38_2 dst_reg_38_129)
                         (= dst_reg_38_3 dst_reg_38_130)
                         (= dst_reg_38_4 dst_reg_38_131)
                         (= dst_reg_38_5 dst_reg_38_132)
                         (= dst_reg_38_6 dst_reg_38_133)
                         (= dst_reg_38_7 dst_reg_38_134)
                         (= dst_reg_38_8 dst_reg_38_135)
                         (= dst_reg_38_9 dst_reg_38_136)
                         (= dst_reg_38_10 dst_reg_38_137)
                         (= cond269.i.i_38_111 dst_reg_38_138)
                         (= dst_reg_38_12 dst_reg_38_139)
                         (= dst_reg_38_13 dst_reg_38_140)
                         (= dst_reg_38_14 dst_reg_38_141)
                         (= dst_reg_38_15 dst_reg_38_142)
                         (= dst_reg_38_16 dst_reg_38_143)
                         (= dst_reg_38_17 dst_reg_38_144)))
                (= dst_reg_38_127 dst_reg_38_199)
                (= dst_reg_38_128 dst_reg_38_200)
                (= dst_reg_38_129 dst_reg_38_201)
                (= dst_reg_38_130 dst_reg_38_202)
                (= dst_reg_38_131 dst_reg_38_203)
                (= dst_reg_38_132 dst_reg_38_204)
                (= dst_reg_38_133 dst_reg_38_205)
                (= dst_reg_38_134 dst_reg_38_206)
                (= dst_reg_38_135 dst_reg_38_207)
                (= dst_reg_38_136 dst_reg_38_208)
                (= dst_reg_38_137 dst_reg_38_209)
                (= dst_reg_38_138 dst_reg_38_210)
                (= dst_reg_38_139 dst_reg_38_211)
                (= dst_reg_38_140 dst_reg_38_212)
                (= dst_reg_38_141 dst_reg_38_213)
                (= dst_reg_38_142 dst_reg_38_214)
                (= dst_reg_38_143 dst_reg_38_215)
                (= dst_reg_38_144 dst_reg_38_216)
                (= src_reg_38_145 src_reg_38_217)
                (= src_reg_38_146 src_reg_38_218)
                (= src_reg_38_147 src_reg_38_219)
                (= src_reg_38_148 src_reg_38_220)
                (= src_reg_38_149 src_reg_38_221)
                (= src_reg_38_150 src_reg_38_222)
                (= src_reg_38_151 src_reg_38_223)
                (= src_reg_38_152 src_reg_38_224)
                (= src_reg_38_153 src_reg_38_225)
                (= src_reg_38_154 src_reg_38_226)
                (= src_reg_38_155 src_reg_38_227)
                (= src_reg_38_156 src_reg_38_228)
                (= src_reg_38_157 src_reg_38_229)
                (= src_reg_38_158 src_reg_38_230)
                (= src_reg_38_159 src_reg_38_231)
                (= src_reg_38_160 src_reg_38_232)
                (= src_reg_38_161 src_reg_38_233)
                (= src_reg_38_162 src_reg_38_234)
                (= other_branch_dst_reg_38_163 other_branch_dst_reg_38_235)
                (= other_branch_dst_reg_38_164 other_branch_dst_reg_38_236)
                (= other_branch_dst_reg_38_165 other_branch_dst_reg_38_237)
                (= other_branch_dst_reg_38_166 other_branch_dst_reg_38_238)
                (= other_branch_dst_reg_38_167 other_branch_dst_reg_38_239)
                (= other_branch_dst_reg_38_168 other_branch_dst_reg_38_240)
                (= other_branch_dst_reg_38_169 other_branch_dst_reg_38_241)
                (= other_branch_dst_reg_38_170 other_branch_dst_reg_38_242)
                (= other_branch_dst_reg_38_171 other_branch_dst_reg_38_243)
                (= other_branch_dst_reg_38_172 other_branch_dst_reg_38_244)
                (= other_branch_dst_reg_38_173 other_branch_dst_reg_38_245)
                (= other_branch_dst_reg_38_174 other_branch_dst_reg_38_246)
                (= other_branch_dst_reg_38_175 other_branch_dst_reg_38_247)
                (= other_branch_dst_reg_38_176 other_branch_dst_reg_38_248)
                (= other_branch_dst_reg_38_177 other_branch_dst_reg_38_249)
                (= other_branch_dst_reg_38_178 other_branch_dst_reg_38_250)
                (= other_branch_dst_reg_38_179 other_branch_dst_reg_38_251)
                (= other_branch_dst_reg_38_180 other_branch_dst_reg_38_252)
                (= other_branch_src_reg_38_181 other_branch_src_reg_38_253)
                (= other_branch_src_reg_38_182 other_branch_src_reg_38_254)
                (= other_branch_src_reg_38_183 other_branch_src_reg_38_255)
                (= other_branch_src_reg_38_184 other_branch_src_reg_38_256)
                (= other_branch_src_reg_38_185 other_branch_src_reg_38_257)
                (= other_branch_src_reg_38_186 other_branch_src_reg_38_258)
                (= other_branch_src_reg_38_187 other_branch_src_reg_38_259)
                (= other_branch_src_reg_38_188 other_branch_src_reg_38_260)
                (= other_branch_src_reg_38_189 other_branch_src_reg_38_261)
                (= other_branch_src_reg_38_190 other_branch_src_reg_38_262)
                (= other_branch_src_reg_38_191 other_branch_src_reg_38_263)
                (= other_branch_src_reg_38_192 other_branch_src_reg_38_264)
                (= other_branch_src_reg_38_193 other_branch_src_reg_38_265)
                (= other_branch_src_reg_38_194 other_branch_src_reg_38_266)
                (= other_branch_src_reg_38_195 other_branch_src_reg_38_267)
                (= other_branch_src_reg_38_196 other_branch_src_reg_38_268)
                (= other_branch_src_reg_38_197 other_branch_src_reg_38_269)
                (= other_branch_src_reg_38_198 other_branch_src_reg_38_270)))
      (a!6 (=> a!1
               (and (ite (bvult i134.i.i_38_97 i142.i.i_38_99)
                         (= cmp264.i.i_38_110 #b1)
                         (= cmp264.i.i_38_110 #b0))
                    (ite (= cmp264.i.i_38_110 #b1)
                         (= cond269.i.i_38_111 i134.i.i_38_97)
                         (= cond269.i.i_38_111 i142.i.i_38_99))
                    (= src_reg_38_28 i349.i.i_38_112)
                    (ite (bvugt i132.i.i_38_96 i349.i.i_38_112)
                         (= cmp274.i.i_38_113 #b1)
                         (= cmp274.i.i_38_113 #b0))
                    (ite (= cmp274.i.i_38_113 #b1)
                         (= cond279.i.i_38_114 i132.i.i_38_96)
                         (= cond279.i.i_38_114 i349.i.i_38_112))
                    (= i30.i32_38_95 i354.i499.i_38_115)
                    (= i30.i_38_84 i355.i501.i_38_116)
                    (= sub.i502.i_38_118 (bvadd i355.i501.i_38_116 #xffffffff))
                    (ite (bvult i354.i499.i_38_115 sub.i502.i_38_118)
                         (= cmp309.i503.i_38_119 #b1)
                         (= cmp309.i503.i_38_119 #b0))
                    (ite (= cmp309.i503.i_38_119 #b1)
                         (= cond314.i504.i_38_120 i354.i499.i_38_115)
                         (= cond314.i504.i_38_120 sub.i502.i_38_118))
                    (= i29.i29_38_94 i356.i506.i_38_121)
                    (= add.i507.i_38_123 (bvadd i356.i506.i_38_121 #x00000001))
                    (= i29.i_38_83 i357.i509.i_38_124)
                    (ite (bvugt add.i507.i_38_123 i357.i509.i_38_124)
                         (= cmp319.i510.i_38_125 #b1)
                         (= cmp319.i510.i_38_125 #b0))
                    (ite (= cmp319.i510.i_38_125 #b1)
                         (= cond324.i511.i_38_126 add.i507.i_38_123)
                         (= cond324.i511.i_38_126 i357.i509.i_38_124))))))
(let ((a!5 (=> (or a!1
                   a!2
                   (and (= cmp.not.i_38_106 #b0) (= narrow_38_103 #b0))
                   (= narrow_38_103 #b1))
               a!4)))
  (and a!5
       a!6
       a!7
       a!8
       (= dst_reg_38_0 dst_reg_38_0)
       (= dst_reg_38_1 dst_reg_38_1)
       (= dst_reg_38_2 dst_reg_38_2)
       (= dst_reg_38_3 dst_reg_38_3)
       (= dst_reg_38_4 dst_reg_38_4)
       (= dst_reg_38_5 dst_reg_38_5)
       (= dst_reg_38_6 dst_reg_38_6)
       (= dst_reg_38_7 dst_reg_38_7)
       (= dst_reg_38_8 dst_reg_38_8)
       (= dst_reg_38_9 dst_reg_38_9)
       (= dst_reg_38_10 dst_reg_38_10)
       (= dst_reg_38_11 dst_reg_38_11)
       (= dst_reg_38_12 dst_reg_38_12)
       (= dst_reg_38_13 dst_reg_38_13)
       (= dst_reg_38_14 dst_reg_38_14)
       (= dst_reg_38_15 dst_reg_38_15)
       (= dst_reg_38_16 dst_reg_38_16)
       (= dst_reg_38_17 dst_reg_38_17)
       (= src_reg_38_18 src_reg_38_18)
       (= src_reg_38_19 src_reg_38_19)
       (= src_reg_38_20 src_reg_38_20)
       (= src_reg_38_21 src_reg_38_21)
       (= src_reg_38_22 src_reg_38_22)
       (= src_reg_38_23 src_reg_38_23)
       (= src_reg_38_24 src_reg_38_24)
       (= src_reg_38_25 src_reg_38_25)
       (= src_reg_38_26 src_reg_38_26)
       (= src_reg_38_27 src_reg_38_27)
       (= src_reg_38_28 src_reg_38_28)
       (= src_reg_38_29 src_reg_38_29)
       (= src_reg_38_30 src_reg_38_30)
       (= src_reg_38_31 src_reg_38_31)
       (= src_reg_38_32 src_reg_38_32)
       (= src_reg_38_33 src_reg_38_33)
       (= src_reg_38_34 src_reg_38_34)
       (= src_reg_38_35 src_reg_38_35)
       (= other_branch_dst_reg_38_36 other_branch_dst_reg_38_36)
       (= other_branch_dst_reg_38_37 other_branch_dst_reg_38_37)
       (= other_branch_dst_reg_38_38 other_branch_dst_reg_38_38)
       (= other_branch_dst_reg_38_39 other_branch_dst_reg_38_39)
       (= other_branch_dst_reg_38_40 other_branch_dst_reg_38_40)
       (= other_branch_dst_reg_38_41 other_branch_dst_reg_38_41)
       (= other_branch_dst_reg_38_42 other_branch_dst_reg_38_42)
       (= other_branch_dst_reg_38_43 other_branch_dst_reg_38_43)
       (= other_branch_dst_reg_38_44 other_branch_dst_reg_38_44)
       (= other_branch_dst_reg_38_45 other_branch_dst_reg_38_45)
       (= other_branch_dst_reg_38_46 other_branch_dst_reg_38_46)
       (= other_branch_dst_reg_38_47 other_branch_dst_reg_38_47)
       (= other_branch_dst_reg_38_48 other_branch_dst_reg_38_48)
       (= other_branch_dst_reg_38_49 other_branch_dst_reg_38_49)
       (= other_branch_dst_reg_38_50 other_branch_dst_reg_38_50)
       (= other_branch_dst_reg_38_51 other_branch_dst_reg_38_51)
       (= other_branch_dst_reg_38_52 other_branch_dst_reg_38_52)
       (= other_branch_dst_reg_38_53 other_branch_dst_reg_38_53)
       (= other_branch_src_reg_38_54 other_branch_src_reg_38_54)
       (= other_branch_src_reg_38_55 other_branch_src_reg_38_55)
       (= other_branch_src_reg_38_56 other_branch_src_reg_38_56)
       (= other_branch_src_reg_38_57 other_branch_src_reg_38_57)
       (= other_branch_src_reg_38_58 other_branch_src_reg_38_58)
       (= other_branch_src_reg_38_59 other_branch_src_reg_38_59)
       (= other_branch_src_reg_38_60 other_branch_src_reg_38_60)
       (= other_branch_src_reg_38_61 other_branch_src_reg_38_61)
       (= other_branch_src_reg_38_62 other_branch_src_reg_38_62)
       (= other_branch_src_reg_38_63 other_branch_src_reg_38_63)
       (= other_branch_src_reg_38_64 other_branch_src_reg_38_64)
       (= other_branch_src_reg_38_65 other_branch_src_reg_38_65)
       (= other_branch_src_reg_38_66 other_branch_src_reg_38_66)
       (= other_branch_src_reg_38_67 other_branch_src_reg_38_67)
       (= other_branch_src_reg_38_68 other_branch_src_reg_38_68)
       (= other_branch_src_reg_38_69 other_branch_src_reg_38_69)
       (= other_branch_src_reg_38_70 other_branch_src_reg_38_70)
       (= other_branch_src_reg_38_71 other_branch_src_reg_38_71)
       (= #x00000001 i.i_38_74)
       (= dst_reg_38_2 i21.i_38_75)
       (= dst_reg_38_3 i22.i_38_76)
       (= dst_reg_38_4 i23.i_38_77)
       (= dst_reg_38_5 i24.i_38_78)
       (= dst_reg_38_6 i25.i_38_79)
       (= dst_reg_38_7 i26.i_38_80)
       (= dst_reg_38_8 i27.i_38_81)
       (= dst_reg_38_9 i28.i_38_82)
       (= dst_reg_38_10 i29.i_38_83)
       (= dst_reg_38_11 i30.i_38_84)
       (= #x00000001 i.i2_38_85)
       (= src_reg_38_20 i21.i5_38_86)
       (= src_reg_38_21 i22.i8_38_87)
       (= src_reg_38_22 i23.i11_38_88)
       (= src_reg_38_23 i24.i14_38_89)
       (= src_reg_38_24 i25.i17_38_90)
       (= src_reg_38_25 i26.i20_38_91)
       (= src_reg_38_26 i27.i23_38_92)
       (= src_reg_38_27 i28.i26_38_93)
       (= src_reg_38_28 i29.i29_38_94)
       (= src_reg_38_29 i30.i32_38_95)
       (= dst_reg_38_10 i132.i.i_38_96)
       (= dst_reg_38_11 i134.i.i_38_97)
       (= src_reg_38_28 i140.i.i_38_98)
       (= src_reg_38_29 i142.i.i_38_99)
       (ite (bvugt i132.i.i_38_96 i142.i.i_38_99)
            (= cmp192.i.i_38_100 #b1)
            (= cmp192.i.i_38_100 #b0))
       (ite (bvule i134.i.i_38_97 i140.i.i_38_98)
            (= cmp195.not.i.i_38_101 #b1)
            (= cmp195.not.i.i_38_101 #b0))
       (ite (= cmp192.i.i_38_100 #b1)
            (= narrow_38_103 #b1)
            (= narrow_38_103 cmp195.not.i.i_38_101)))))))

;{"dst_reg":["dst_reg_38_0","dst_reg_38_1",[""],["dst_reg_38_2","dst_reg_38_3"],"dst_reg_38_4","dst_reg_38_5","dst_reg_38_6","dst_reg_38_7","dst_reg_38_8","dst_reg_38_9","dst_reg_38_10","dst_reg_38_11","dst_reg_38_12","dst_reg_38_13","","","dst_reg_38_14","dst_reg_38_15","dst_reg_38_16"],"other_branch_dst_reg":["other_branch_dst_reg_38_36","other_branch_dst_reg_38_37",[""],["other_branch_dst_reg_38_38","other_branch_dst_reg_38_39"],"other_branch_dst_reg_38_40","other_branch_dst_reg_38_41","other_branch_dst_reg_38_42","other_branch_dst_reg_38_43","other_branch_dst_reg_38_44","other_branch_dst_reg_38_45","other_branch_dst_reg_38_46","other_branch_dst_reg_38_47","other_branch_dst_reg_38_48","other_branch_dst_reg_38_49","","","other_branch_dst_reg_38_50","other_branch_dst_reg_38_51","other_branch_dst_reg_38_52"],"other_branch_src_reg":["other_branch_src_reg_38_54","other_branch_src_reg_38_55",[""],["other_branch_src_reg_38_56","other_branch_src_reg_38_57"],"other_branch_src_reg_38_58","other_branch_src_reg_38_59","other_branch_src_reg_38_60","other_branch_src_reg_38_61","other_branch_src_reg_38_62","other_branch_src_reg_38_63","other_branch_src_reg_38_64","other_branch_src_reg_38_65","other_branch_src_reg_38_66","other_branch_src_reg_38_67","","","other_branch_src_reg_38_68","other_branch_src_reg_38_69","other_branch_src_reg_38_70"],"src_reg":["src_reg_38_18","src_reg_38_19",[""],["src_reg_38_20","src_reg_38_21"],"src_reg_38_22","src_reg_38_23","src_reg_38_24","src_reg_38_25","src_reg_38_26","src_reg_38_27","src_reg_38_28","src_reg_38_29","src_reg_38_30","src_reg_38_31","","","src_reg_38_32","src_reg_38_33","src_reg_38_34"]}
;{"dst_reg":["dst_reg_38_199","dst_reg_38_200",[""],["dst_reg_38_201","dst_reg_38_202"],"dst_reg_38_203","dst_reg_38_204","dst_reg_38_205","dst_reg_38_206","dst_reg_38_207","dst_reg_38_208","dst_reg_38_209","dst_reg_38_210","dst_reg_38_211","dst_reg_38_212","","","dst_reg_38_213","dst_reg_38_214","dst_reg_38_215"],"other_branch_dst_reg":["other_branch_dst_reg_38_235","other_branch_dst_reg_38_236",[""],["other_branch_dst_reg_38_237","other_branch_dst_reg_38_238"],"other_branch_dst_reg_38_239","other_branch_dst_reg_38_240","other_branch_dst_reg_38_241","other_branch_dst_reg_38_242","other_branch_dst_reg_38_243","other_branch_dst_reg_38_244","other_branch_dst_reg_38_245","other_branch_dst_reg_38_246","other_branch_dst_reg_38_247","other_branch_dst_reg_38_248","","","other_branch_dst_reg_38_249","other_branch_dst_reg_38_250","other_branch_dst_reg_38_251"],"other_branch_src_reg":["other_branch_src_reg_38_253","other_branch_src_reg_38_254",[""],["other_branch_src_reg_38_255","other_branch_src_reg_38_256"],"other_branch_src_reg_38_257","other_branch_src_reg_38_258","other_branch_src_reg_38_259","other_branch_src_reg_38_260","other_branch_src_reg_38_261","other_branch_src_reg_38_262","other_branch_src_reg_38_263","other_branch_src_reg_38_264","other_branch_src_reg_38_265","other_branch_src_reg_38_266","","","other_branch_src_reg_38_267","other_branch_src_reg_38_268","other_branch_src_reg_38_269"],"src_reg":["src_reg_38_217","src_reg_38_218",[""],["src_reg_38_219","src_reg_38_220"],"src_reg_38_221","src_reg_38_222","src_reg_38_223","src_reg_38_224","src_reg_38_225","src_reg_38_226","src_reg_38_227","src_reg_38_228","src_reg_38_229","src_reg_38_230","","","src_reg_38_231","src_reg_38_232","src_reg_38_233"]}
